p tw 60 66
1 2
2 13
3 4
4 5
5 6
6 7
7 8
7 11
8 9
9 10
10 11
10 14
11 12
12 55
13 24
14 15
15 16
16 17
17 18
18 19
19 20
20 21
21 22
21 25
22 23
23 55
24 35
25 26
26 27
27 28
28 29
29 30
30 31
31 32
31 38
32 33
33 34
34 36
35 46
36 37
37 29
38 39
39 40
40 41
41 42
42 43
43 44
44 45
45 47
45 3
46 57
47 48
48 49
49 50
50 51
51 43
52 53
53 54
54 55
55 56
57 58
57 3
58 59
59 60
59 6
60 52
